************************************************************************
file with basedata            : n/a
initial value random generator: n/a
************************************************************************
projects                      :  1
jobs (incl. supersource/sink ):  32
horizon                       :  187
RESOURCES
  - renewable                 :  4   R
  - nonrenewable              :  0   N
  - doubly constrained        :  0   D
************************************************************************
PROJECT INFORMATION:
pronr.  #jobs rel.date duedate tardcost  MPM-Time
    1     30      0       57       10       57
************************************************************************
PRECEDENCE RELATIONS:
jobnr.    #modes  #successors   successors
   1        1          3           2   3   4
   2        1          3           5  12  20
   3        1          3           5   7   9
   4        1          3           6  15  19
   5        1          3           8  11  13
   6        1          3          12  14  16
   7        1          3          24  25  31
   8        1          3          10  17  27
   9        1          3          12  14  23
  10        1          3          14  18  19
  11        1          2          15  21
  12        1          3          13  17  26
  13        1          3          22  28  29
  14        1          1          21
  15        1          3          18  23  26
  16        1          3          17  20  21
  17        1          3          18  24  29
  18        1          1          25
  19        1          2          22  24
  20        1          3          23  26  28
  21        1          3          22  28  29
  22        1          1          25
  23        1          1          27
  24        1          1          30
  25        1          1          30
  26        1          2          27  30
  27        1          1          31
  28        1          1          31
  29        1          1          32
  30        1          1          32
  31        1          1          32
  32        1          0        
************************************************************************
REQUESTS/DURATIONS:
jobnr. mode duration  R 1  R 2  R 3  R 4
------------------------------------------------------------------------
  1      1     0    
  2      1     3       4   7   4
                       4   8   4
                       5  10   5
                       2   4   2
  3      1     4       3   3   6   6
                       3   3   5   5
                       2   2   3   3
                       1   1   1   1
  4      1     5       4   4   4   4   2
                      10  10  10  10   5
                      10  10  10  10   5
                      10  10  10  10   5
  5      1     8       8   8   8   8   8   8   8   8
                       2   2   2   2   2   2   2   2
                       8   8   8   8   8   8   8   8
                       1   1   1   1   1   1   1   1
  6      1     1       1
                       1
                       6
                      10
  7      1     5       8   8   8   8   8
                       4   4   4   4   4
                       5   5   5   5   5
                       7   7   7   7   7
  8      1     4       2   4   4   4
                       3   5   5   5
                       5   9   9   9
                       2   3   3   3
  9      1     8       2   2   2   2   2   2   2   2
                       3   3   3   3   3   3   3   3
                       8   8   8   8   8   8   8   8
                       1   1   1   1   1   1   1   1
 10      1    10       3   3   2   3   3   3   2   2   3   2
                       9   9   5   9   9   9   5   5   9   5
                       4   4   2   4   4   4   2   2   4   2
                       7   7   4   7   7   7   4   4   7   4
 11      1     4       1   1   1   1
                       7   7   7   7
                       2   2   2   2
                       9   9   9   9
 12      1     3       7   7   7
                       5   5   5
                       4   4   4
                       9   9   9
 13      1    10       6   3   6   3   6   3   6   6   6   6
                       5   3   5   3   5   3   5   5   5   5
                       6   3   6   3   6   3   6   6   6   6
                       5   3   5   3   5   3   5   5   5   5
 14      1     6       4   4   4   2   4   4
                      10  10  10   5  10  10
                       3   3   3   2   3   3
                       6   6   6   3   6   6
 15      1     6       1   1   1   1   1   1
                       7   4   4   4   7   7
                       4   2   2   2   4   4
                      10   5   5   5  10  10
 16      1    10       4   7   4   7   7   7   4   4   7   7
                       3   5   3   5   5   5   3   3   5   5
                       3   5   3   5   5   5   3   3   5   5
                       2   4   2   4   4   4   2   2   4   4
 17      1     9       5   5   5   5   3   3   3   5   5
                       5   5   5   5   3   3   3   5   5
                       9   9   9   9   5   5   5   9   9
                       9   9   9   9   5   5   5   9   9
 18      1     8       8   8   8   8   4   8   8   8
                       2   2   2   2   1   2   2   2
                       1   1   1   1   1   1   1   1
                       6   6   6   6   3   6   6   6
 19      1     6       5   5   5   5   3   5
                       5   5   5   5   3   5
                       7   7   7   7   4   7
                       3   3   3   3   2   3
 20      1     1       7
                       5
                       8
                       4
 21      1     9       7   4   7   7   4   7   4   7   7
                      10   5  10  10   5  10   5  10  10
                       1   1   1   1   1   1   1   1   1
                       6   3   6   6   3   6   3   6   6
 22      1     5       6   6   6   6   6
                       7   7   7   7   7
                       3   3   3   3   3
                       9   9   9   9   9
 23      1     4       2   2   2   1
                       1   1   1   1
                       7   7   7   4
                       2   2   2   1
 24      1     3       6   6   3
                       9   9   5
                       7   7   4
                       2   2   1
 25      1     6       2   2   1   1   2   1
                       3   3   2   2   3   2
                       1   1   1   1   1   1
                       4   4   2   2   4   2
 26      1    10       5   3   3   5   5   5   5   5   5   3
                       6   3   3   6   6   6   6   6   6   3
                       6   3   3   6   6   6   6   6   6   3
                       4   2   2   4   4   4   4   4   4   2
 27      1     9       2   4   4   4   4   4   4   4   4
                       2   3   3   3   3   3   3   3   3
                       2   4   4   4   4   4   4   4   4
                       1   2   2   2   2   2   2   2   2
 28      1     6       4   8   8   8   8   8
                       5   9   9   9   9   9
                       4   7   7   7   7   7
                       5   9   9   9   9   9
 29      1     9       9   9   9   9   5   9   9   5   9
                       7   7   7   7   4   7   7   4   7
                      10  10  10  10   5  10  10   5  10
                       3   3   3   3   2   3   3   2   3
 30      1     5       2   2   1   2   2
                       9   9   5   9   9
                       8   8   4   8   8
                       1   1   1   1   1
 31      1    10       5   5   5   3   5   5   5   5   5   5
                       2   2   2   1   2   2   2   2   2   2
                       7   7   7   4   7   7   7   7   7   7
                       9   9   9   5   9   9   9   9   9   9
 32      1     0    
************************************************************************
RESOURCEAVAILABILITIES:
  R 1  R 2  R 3  R 4

  20  10  20  20  20  10  20  20  20  20  20  20  20  20  20  20  20  20  10  20  10  20  20  20  10  20  20  20  20  20  20  10  20  10  20  20  20  20  20  20  20  20  20  20  20  20  20  20  20  20  20  20  20  20  10  20  20  20  10  20  20  20  10  20  20  20  10  20  20  20  20  20  20  20  10  20  20  10  20  20  10  20  20  20  20  20  20  20  20  20  20  20  20  20  20  20  10  20  20  20  10  10  20  20  20  20  20  20  20  20  20  20  20  20  10  20  20  20  20  10  20  20  20  20  20  20  20  10  10  20  20  20  10  20  20  10  20  20  20  20  20  20  20  20  20  20  20  20  20  20  20  20  20  20  20  20  10  20  20  10  20  20  20  20  20  20  20  20  20  20  20  20  20  20  20  20  20  10  20  20  20  20  20  20  10  20  10

  25  13  25  25  25  13  25  25  25  25  25  25  25  25  25  25  25  25  13  25  13  25  25  25  13  25  25  25  25  25  25  13  25  13  25  25  25  25  25  25  25  25  25  25  25  25  25  25  25  25  25  25  25  25  13  25  25  25  13  25  25  25  13  25  25  25  13  25  25  25  25  25  25  25  13  25  25  13  25  25  13  25  25  25  25  25  25  25  25  25  25  25  25  25  25  25  13  25  25  25  13  13  25  25  25  25  25  25  25  25  25  25  25  25  13  25  25  25  25  13  25  25  25  25  25  25  25  13  13  25  25  25  13  25  25  13  25  25  25  25  25  25  25  25  25  25  25  25  25  25  25  25  25  25  25  25  13  25  25  13  25  25  25  25  25  25  25  25  25  25  25  25  25  25  25  25  25  13  25  25  25  25  25  25  13  25  13

  25  13  25  25  25  13  25  25  25  25  25  25  25  25  25  25  25  25  13  25  13  25  25  25  13  25  25  25  25  25  25  13  25  13  25  25  25  25  25  25  25  25  25  25  25  25  25  25  25  25  25  25  25  25  13  25  25  25  13  25  25  25  13  25  25  25  13  25  25  25  25  25  25  25  13  25  25  13  25  25  13  25  25  25  25  25  25  25  25  25  25  25  25  25  25  25  13  25  25  25  13  13  25  25  25  25  25  25  25  25  25  25  25  25  13  25  25  25  25  13  25  25  25  25  25  25  25  13  13  25  25  25  13  25  25  13  25  25  25  25  25  25  25  25  25  25  25  25  25  25  25  25  25  25  25  25  13  25  25  13  25  25  25  25  25  25  25  25  25  25  25  25  25  25  25  25  25  13  25  25  25  25  25  25  13  25  13

  28  14  28  28  28  14  28  28  28  28  28  28  28  28  28  28  28  28  14  28  14  28  28  28  14  28  28  28  28  28  28  14  28  14  28  28  28  28  28  28  28  28  28  28  28  28  28  28  28  28  28  28  28  28  14  28  28  28  14  28  28  28  14  28  28  28  14  28  28  28  28  28  28  28  14  28  28  14  28  28  14  28  28  28  28  28  28  28  28  28  28  28  28  28  28  28  14  28  28  28  14  14  28  28  28  28  28  28  28  28  28  28  28  28  14  28  28  28  28  14  28  28  28  28  28  28  28  14  14  28  28  28  14  28  28  14  28  28  28  28  28  28  28  28  28  28  28  28  28  28  28  28  28  28  28  28  14  28  28  14  28  28  28  28  28  28  28  28  28  28  28  28  28  28  28  28  28  14  28  28  28  28  28  28  14  28  14

************************************************************************
